p cnf 21 13
9 -18 15 17 -12 -6 -4 0
9 -6 3 -4 0
-6 3 5 0
-6 11 -2 23 0
-14 3 -2 0
1 -14 19 -10 11 13 -2 0
4 6 8 9 -19 -18 -16 17 -7 -5 -3 0
-16 17 20 5 -12 -18 0
1 4 6 7 9 11 13 15 17 -16 -12 -10 -8 -5 -3 -2 0
4 8 9 -23 -20 13 15 -14 -10 -3 0
5 9 -19 15 17 -6 -4 0
-8 7 -20 15 0
-20 -4 -19 0
